RAW/CMTT/fspd-mid/CMT8T.vrp_seed-5.out
865.5383369	1.756	192.935
