RAW/CMTT/fspd-mid/CMT8T.vrp_seed-5.sol
Route #1: 27 69 70 30 32 90 63 10 62 88 31
Route #2: 1 51 20 66 65 71 35 9 81 33 50
Route #3: 54 55 25 39 67 23 56 4 26
Route #4: 94 95 97 92 37 98 100 91 85 93 59 96 6
Route #5: 58 2 57 15 41 22 75 74 72 73 21 40 53
Route #6: 28 76 77 3 79 78 34 29 24 68 80 12
Route #7: 52 7 19 11 64 49 36 47 48 82 18
Route #8: 13 87 42 43 14 44 38 86 16 61 99
Route #9: 89 60 83 8 46 45 17 84 5
Cost 865.538337